64
Lattice="11.10629050983671 0.0 0.0 5.553145254918355 9.618329723328612 0.0 0.0 0.0 26.801186171053793" Properties=species:S:1:pos:R:3:move_mask:L:1:tags:I:1 pbc="T T F"
Cu       0.00000000       0.00000000      10.00000000  F        0
Cu       2.77657263       0.00000000      10.00000000  F        0
Cu       5.55314525       0.00000000      10.00000000  F        0
Cu       8.32971788       0.00000000      10.00000000  F        0
Cu       1.38828631       2.40458243      10.00000000  F        0
Cu       4.16485894       2.40458243      10.00000000  F        0
Cu       6.94143157       2.40458243      10.00000000  F        0
Cu       9.71800420       2.40458243      10.00000000  F        0
Cu       2.77657263       4.80916486      10.00000000  F        0
Cu       5.55314525       4.80916486      10.00000000  F        0
Cu       8.32971788       4.80916486      10.00000000  F        0
Cu      11.10629051       4.80916486      10.00000000  F        0
Cu       4.16485894       7.21374729      10.00000000  F        0
Cu       6.94143157       7.21374729      10.00000000  F        0
Cu       9.71800420       7.21374729      10.00000000  F        0
Cu      12.49457682       7.21374729      10.00000000  F        0
Cu       1.38828631       0.80152748      12.26706206  T        1
Ag       4.16485894       0.80152748      12.26706206  T        1
Ag       6.94143157       0.80152748      12.26706206  T        1
Ag       9.71800420       0.80152748      12.26706206  T        1
Au       2.77657263       3.20610991      12.26706206  T        1
Ag       5.55314525       3.20610991      12.26706206  T        1
Au       8.32971788       3.20610991      12.26706206  T        1
Au      11.10629051       3.20610991      12.26706206  T        1
Cu       4.16485894       5.61069234      12.26706206  T        1
Au       6.94143157       5.61069234      12.26706206  T        1
Au       9.71800420       5.61069234      12.26706206  T        1
Au      12.49457682       5.61069234      12.26706206  T        1
Ag       5.55314525       8.01527477      12.26706206  T        1
Cu       8.32971788       8.01527477      12.26706206  T        1
Cu      11.10629051       8.01527477      12.26706206  T        1
Cu      13.88286314       8.01527477      12.26706206  T        1
Ag      -0.00000000       1.60305495      14.53412411  T        1
Au       2.77657263       1.60305495      14.53412411  T        1
Au       5.55314525       1.60305495      14.53412411  T        1
Ag       8.32971788       1.60305495      14.53412411  T        1
Ag       1.38828631       4.00763738      14.53412411  T        1
Ag       4.16485894       4.00763738      14.53412411  T        1
Cu       6.94143157       4.00763738      14.53412411  T        1
Cu       9.71800420       4.00763738      14.53412411  T        1
Ag       2.77657263       6.41221982      14.53412411  T        1
Au       5.55314525       6.41221982      14.53412411  T        1
Au       8.32971788       6.41221982      14.53412411  T        1
Ag      11.10629051       6.41221982      14.53412411  T        1
Ag       4.16485894       8.81680225      14.53412411  T        1
Ag       6.94143157       8.81680225      14.53412411  T        1
Au       9.71800420       8.81680225      14.53412411  T        1
Au      12.49457682       8.81680225      14.53412411  T        1
Au       0.00000000       0.00000000      16.80118617  T        1
Cu       2.77657263       0.00000000      16.80118617  T        1
Ag       5.55314525       0.00000000      16.80118617  T        1
Ag       8.32971788       0.00000000      16.80118617  T        1
Au       1.38828631       2.40458243      16.80118617  T        1
Cu       4.16485894       2.40458243      16.80118617  T        1
Cu       6.94143157       2.40458243      16.80118617  T        1
Cu       9.71800420       2.40458243      16.80118617  T        1
Cu       2.77657263       4.80916486      16.80118617  T        1
Cu       5.55314525       4.80916486      16.80118617  T        1
Cu       8.32971788       4.80916486      16.80118617  T        1
Ag      11.10629051       4.80916486      16.80118617  T        1
Cu       4.16485894       7.21374729      16.80118617  T        1
Cu       6.94143157       7.21374729      16.80118617  T        1
Au       9.71800420       7.21374729      16.80118617  T        1
Au      12.49457682       7.21374729      16.80118617  T        1
